11769.0
1 0 1 0 0 1 0 1 1 0 0 1 0 1 1 0 0 1 0 0 1 0 0 0 1 1 0 0 0 0 
20 11 13 2 20 5 2 24 8 17 5 8 8 20 17 14 14 17 25 11 2 0 25 17 25 8 2 24 5 24 5 25 13 25 20 20 24 24 0 14 0 14 24 8 24 14 0 13 11 8 25 14 14 5 13 20 17 11 0 14 0 5 20 11 11 11 24 0 25 5 20 13 11 17 24 8 5 20 14 24 20 7 13 17 2 17 17 7 20 5 2 5 17 11 17 24 2 2 25 20 8 17 17 25 2 25 17 11 14 8 14 14 2 11 11 11 24 24 5 24 5 8 25 13 8 7 5 25 0 25 0 11 24 11 8 14 7 25 20 17 0 8 20 14 8 25 25 5 2 5 